experiments/knapsack_bounded/knapsack_bounded_5_4.mps
NAME
ROWS
 N  OBJ
 L  c1
 L  c2
 L  c3
 L  c4
 L  c5
 L  c6
COLUMNS
    MARKER    'MARKER'                 'INTORG'
    x[1]      c1        288
    x[1]      c2        1
    x[1]      OBJ       -414
    x[2]      c1        33
    x[2]      c3        1
    x[2]      OBJ       -587
    x[3]      c1        650
    x[3]      c4        1
    x[3]      OBJ       -799
    x[4]      c1        821
    x[4]      c5        1
    x[4]      OBJ       -137
    x[5]      c1        361
    x[5]      c6        1
    x[5]      OBJ       -847
    MARKER    'MARKER'                 'INTEND'
RHS
    rhs       c1        1076
    rhs       c2        7
    rhs       c3        5
    rhs       c4        10
    rhs       c5        4
    rhs       c6        1
RANGES
BOUNDS
 LO bounds    x[1]      0
 PL bounds    x[1]
 LO bounds    x[2]      0
 PL bounds    x[2]
 LO bounds    x[3]      0
 PL bounds    x[3]
 LO bounds    x[4]      0
 PL bounds    x[4]
 LO bounds    x[5]      0
 PL bounds    x[5]
ENDATA
