experiments/knapsack_bounded/knapsack_bounded_5_4.mps.log
Algorithm statistics:
zero_reductions => 10
max_basis_size => 21
queued_pairs => 0
built_pairs => 28
reduced_pairs => 26
eliminated_by_truncation => 0
removed_by_autoreduction => 0
eliminated_by_gcd => 182
time => 0.004326789
memory => 0.0011585429310798645
4ti2 results
4ti2 time => 0.014657166
